# family=mini
# opt=1
# seed=0
3 3
0 0 0
0 1 1
0 2 2
