# family=mini
# opt=3
# seed=0
3 5
0 0 0
1 1 1
2 2 2
0 1 2
1 2 0
