# family=mini
# opt=2
# seed=0
2 3
0 0 0
0 1 1
1 1 1
